File : Instances/p30
Used 141s
11409

1 0 1 0 0 1 0 0 1 0 0 1 0 0 1 0 0 1 0 0 1 0 0 0 1 1 0 0 0 0 
20 11 8 2 8 5 2 5 2 17 5 8 14 20 17 14 17 17 25 11 2 0 25 0 25 8 2 24 5 24 5 25 14 25 20 20 24 24 0 14 0 14 24 2 24 14 11 8 11 8 25 2 14 5 20 20 17 0 0 14 0 5 20 11 11 11 24 0 11 25 8 20 11 17 24 8 5 20 2 24 20 0 8 17 17 17 17 0 20 5 2 24 17 11 17 5 2 0 11 8 8 17 17 25 2 25 0 11 14 14 14 14 2 11 11 25 24 24 5 24 5 8 25 20 8 0 5 25 0 25 0 11 24 25 8 14 0 5 20 17 0 8 20 14 8 11 25 5 2 5 
